
Welcome to IBM(R) ILOG(R) CPLEX(R) Interactive Optimizer 22.1.1.0
  with Simplex, Mixed Integer & Barrier Optimizers
5725-A06 5725-A29 5724-Y48 5724-Y49 5724-Y54 5724-Y55 5655-Y21
Copyright IBM Corp. 1988, 2022.  All Rights Reserved.

Type 'help' for a list of available commands.
Type 'help' followed by a command name for more
information on commands.

CPLEX> Selected objective sense:  MINIMIZE
Selected objective  name:  00000000
Selected RHS        name:  RHS1
Selected bound      name:  BOUND
Problem 'ee.mps' read.
Read time = 0.03 sec. (3.17 ticks)
CPLEX> New value for time limit in seconds: 7200
CPLEX> New value for parallel optimization mode: -1
CPLEX> New value for default parallel thread count: 40
CPLEX> New value for mixed integer optimality gap tolerance: 1e-13
CPLEX> Version identifier: 22.1.1.0 | 2022-11-28 | 9160aff4d
CPXPARAM_Threads                                 40
CPXPARAM_Parallel                                -1
CPXPARAM_TimeLimit                               7200
CPXPARAM_MIP_Tolerances_MIPGap                   1e-13
Found incumbent of value 0.000000 after 0.00 sec. (0.31 ticks)
Tried aggregator 2 times.
MIP Presolve eliminated 183 rows and 2745 columns.
MIP Presolve modified 6090 coefficients.
Aggregator did 713 substitutions.
Reduced MIP has 3636 rows, 7840 columns, and 28952 nonzeros.
Reduced MIP has 7840 binaries, 0 generals, 0 SOSs, and 0 indicators.
Presolve time = 0.07 sec. (69.12 ticks)
Probing time = 0.03 sec. (5.77 ticks)
Tried aggregator 1 time.
Detecting symmetries...
Reduced MIP has 3636 rows, 7840 columns, and 28952 nonzeros.
Reduced MIP has 7840 binaries, 0 generals, 0 SOSs, and 0 indicators.
Presolve time = 0.03 sec. (22.10 ticks)
Probing time = 0.02 sec. (5.58 ticks)
Clique table members: 18787.
MIP emphasis: balance optimality and feasibility.
MIP search method: dynamic search.
Parallel mode: opportunistic, using up to 40 threads.
Root relaxation solution time = 0.20 sec. (209.70 ticks)

        Nodes                                         Cuts/
   Node  Left     Objective  IInf  Best Integer    Best Bound    ItCnt     Gap

*     0+    0                            0.0000  -1.54000e+13              --- 
*     0+    0                      -6.00000e+12  -1.54000e+13           156.67%
      0     0  -1.53900e+13    96  -6.00000e+12  -1.53900e+13     2915  156.50%
*     0+    0                      -1.53900e+13  -1.53900e+13             0.00%
      0     0  -1.53900e+13   191  -1.53900e+13      Cuts: 81     3515    0.00%
      0     0  -1.53900e+13   242  -1.53900e+13      Cuts: 93     4369    0.00%
*     0+    0                      -1.53900e+13  -1.53900e+13             0.00%
*     0+    0                      -1.53900e+13  -1.53900e+13             0.00%
      0    36        cutoff        -1.53900e+13  -1.53900e+13    22067    0.00%
Elapsed time = 2.88 sec. (1680.95 ticks, tree = 0.02 MB, solutions = 24)
     94    52        cutoff        -1.53900e+13  -1.53900e+13    30088    0.00%
    227    87  -1.53900e+13   101  -1.53900e+13  -1.53900e+13    55403    0.00%
    514    75  -1.53900e+13   171  -1.53900e+13  -1.53900e+13    41568    0.00%
    868    82  -1.53900e+13    69  -1.53900e+13  -1.53900e+13    48285    0.00%
   1380   129  -1.53900e+13   184  -1.53900e+13  -1.53900e+13    69988    0.00%
   1811   322        cutoff        -1.53900e+13  -1.53900e+13   140212    0.00%
   2276   202  -1.53900e+13   103  -1.53900e+13  -1.53900e+13    94321    0.00%
   2741   715  -1.53900e+13    95  -1.53900e+13  -1.53900e+13   305125    0.00%
   3181   552  -1.53900e+13   138  -1.53900e+13  -1.53900e+13   241241    0.00%
   4721   601  -1.53900e+13   189  -1.53900e+13  -1.53900e+13   264157    0.00%
Elapsed time = 8.55 sec. (4787.44 ticks, tree = 1.42 MB, solutions = 32)
   6083  1211  -1.53900e+13   109  -1.53900e+13  -1.53900e+13   541790    0.00%
   6916  1700    infeasible        -1.53900e+13  -1.53900e+13   923174    0.00%
   7455  1683  -1.53900e+13    51  -1.53900e+13  -1.53900e+13   889918    0.00%
   7892  1736  -1.53900e+13     9  -1.53900e+13  -1.53900e+13  1044314    0.00%
   8444  1735  -1.53900e+13   285  -1.53900e+13  -1.53900e+13  1243794    0.00%
   9168  1801  -1.53900e+13   136  -1.53900e+13  -1.53900e+13  1254830    0.00%
   9898  1878  -1.53900e+13    84  -1.53900e+13  -1.53900e+13  1311536    0.00%
  10758  1934  -1.53900e+13   144  -1.53900e+13  -1.53900e+13  1384951    0.00%
  11398  2270        cutoff        -1.53900e+13  -1.53900e+13  1600227    0.00%
  11851  2373  -1.53900e+13   291  -1.53900e+13  -1.53900e+13  1705439    0.00%
Elapsed time = 22.10 sec. (14341.79 ticks, tree = 16.21 MB, solutions = 32)
  12283  2601  -1.53900e+13   109  -1.53900e+13  -1.53900e+13  1885316    0.00%
  12673  2696  -1.53900e+13    97  -1.53900e+13  -1.53900e+13  1996853    0.00%

Performing restart 1

Repeating presolve.
Tried aggregator 2 times.
MIP Presolve eliminated 29 rows and 19 columns.
MIP Presolve modified 1865 coefficients.
Aggregator did 3 substitutions.
Reduced MIP has 3528 rows, 7818 columns, and 28284 nonzeros.
Reduced MIP has 7818 binaries, 0 generals, 0 SOSs, and 0 indicators.
Presolve time = 0.04 sec. (39.86 ticks)
Tried aggregator 2 times.
MIP Presolve eliminated 10 rows and 39 columns.
MIP Presolve modified 28 coefficients.
Aggregator did 17 substitutions.
Reduced MIP has 3501 rows, 7756 columns, and 28058 nonzeros.
Reduced MIP has 7756 binaries, 0 generals, 0 SOSs, and 0 indicators.
Presolve time = 0.06 sec. (54.29 ticks)
Represolve time = 0.26 sec. (168.29 ticks)
  12814     0  -1.53900e+13   314  -1.53900e+13      Cuts: 20  2297725    0.00%
  12814     0  -1.53900e+13   309  -1.53900e+13      Cuts: 22  2297842    0.00%
  12814     0  -1.53900e+13   273  -1.53900e+13      Cuts: 17  2297907    0.00%
  12814     0  -1.53900e+13   338  -1.53900e+13      Cuts: 23  2298035    0.00%
* 12814+    0                      -1.53900e+13  -1.53900e+13             0.00%
  12814     0  -1.53900e+13   215  -1.53900e+13      Cuts: 17  2298284    0.00%
  12814     0  -1.53900e+13   305  -1.53900e+13      Cuts: 21  2298357    0.00%
  12814     0  -1.53900e+13   254  -1.53900e+13  ZeroHalf: 11  2298519    0.00%
  12814     0  -1.53900e+13   314  -1.53900e+13      Cuts: 21  2298600    0.00%
  12814     0  -1.53900e+13   285  -1.53900e+13      Cuts: 16  2298773    0.00%
  12814     0  -1.53900e+13   244  -1.53900e+13      Cuts: 21  2298843    0.00%
  12814     0  -1.53900e+13   255  -1.53900e+13      Cuts: 19  2298892    0.00%
  12814     8    infeasible        -1.53900e+13  -1.53900e+13  2330388    0.00%
* 12879    32      integral     0  -1.53900e+13  -1.53900e+13  2370730    0.00%
  13127    14  -1.53900e+13   183  -1.53900e+13  -1.53900e+13  2343819    0.00%
  13246    22  -1.53900e+13   193  -1.53900e+13  -1.53900e+13  2373958    0.00%

GUB cover cuts applied:  2
Clique cuts applied:  10
Cover cuts applied:  291
Flow cuts applied:  3
Mixed integer rounding cuts applied:  9
Zero-half cuts applied:  51
Lift and project cuts applied:  5
Gomory fractional cuts applied:  17

Root node processing (before b&c):
  Real time             =    1.68 sec. (1667.05 ticks)
Parallel b&c, 40 threads:
  Real time             =   31.63 sec. (21789.41 ticks)
  Sync time (average)   =    4.05 sec.
  Wait time (average)   =    0.12 sec.
                          ------------
Total (root+branch&cut) =   33.32 sec. (23456.46 ticks)

Solution pool: 39 solutions saved.

MIP - Integer optimal solution:  Objective = -1.5389998489e+13
Solution time =   33.43 sec.  Iterations = 2377339  Nodes = 13259
Deterministic time = 23456.49 ticks  (701.74 ticks/sec)

CPLEX> Solution 'p40' written to file 'ee.sol'.
CPLEX> 